
Gurobi 8.1.1 (win64) logging started 11/24/19 12:48:58

Changed value of parameter LogFile to logs/drand/feas/drand-10-110-1.log
   Prev: gurobi.log  Default: 
Changed value of parameter LogToConsole to 0
   Prev: 1  Min: 0  Max: 1  Default: 1
Changed value of parameter TimeLimit to 3600.0
   Prev: 1e+100  Min: 0.0  Max: 1e+100  Default: 1e+100
Optimize a model with 802 rows, 369 columns and 2952 nonzeros
Variable types: 0 continuous, 369 integer (360 binary)
Coefficient statistics:
  Matrix range     [1e+00, 5e+02]
  Objective range  [1e+00, 1e+00]
  Bounds range     [1e+00, 1e+00]
  RHS range        [1e+00, 6e+02]
Presolve time: 0.01s
Presolved: 802 rows, 369 columns, 2952 nonzeros
Variable types: 0 continuous, 369 integer (360 binary)

Root relaxation: objective 3.600000e+01, 182 iterations, 0.00 seconds

    Nodes    |    Current Node    |     Objective Bounds      |     Work
 Expl Unexpl |  Obj  Depth IntInf | Incumbent    BestBd   Gap | It/Node Time

     0     0   36.00000    0  140          -   36.00000      -     -    0s
     0     0   44.60533    0   92          -   44.60533      -     -    0s
     0     0   47.55086    0   57          -   47.55086      -     -    0s
     0     0   48.67114    0   86          -   48.67114      -     -    0s
     0     0   48.76598    0   85          -   48.76598      -     -    0s
     0     0   48.77383    0   85          -   48.77383      -     -    0s
     0     0   48.81068    0   58          -   48.81068      -     -    0s
     0     0   48.86523    0   55          -   48.86523      -     -    0s
     0     0   48.86523    0   55          -   48.86523      -     -    0s
     0     0   49.57710    0   79          -   49.57710      -     -    0s
     0     0   50.06335    0   79          -   50.06335      -     -    0s
     0     0   50.13922    0   77          -   50.13922      -     -    0s
     0     0   50.13922    0   79          -   50.13922      -     -    0s
     0     0   51.34016    0   76          -   51.34016      -     -    0s
     0     0   51.34074    0   78          -   51.34074      -     -    0s
     0     0   53.03808    0   68          -   53.03808      -     -    0s
     0     0   53.03808    0   70          -   53.03808      -     -    0s
     0     0   53.03808    0   67          -   53.03808      -     -    0s
     0     0   53.03808    0   57          -   53.03808      -     -    0s
H    0     0                     267.0000000   53.03808  80.1%     -    0s
H    0     0                     260.0000000   53.03808  79.6%     -    0s
     0     2   53.03808    0   49  260.00000   53.03808  79.6%     -    0s
H  745   502                     211.0000000  124.00000  41.2%   7.6    0s
H  745   477                     202.0000000  124.00000  38.6%   7.6    0s
* 1998   185              42     200.0000000  159.00000  20.5%   7.1    1s
* 2250    20              44     196.0000000  170.00000  13.3%   7.2    1s
* 2252     8              44     188.0000000  170.00000  9.57%   7.2    1s

Cutting planes:
  Gomory: 2
  MIR: 1
  StrongCG: 1

Explored 2414 nodes (18647 simplex iterations) in 1.10 seconds
Thread count was 4 (of 4 available processors)

Solution count 7: 188 196 200 ... 267

Optimal solution found (tolerance 1.00e-04)
Best objective 1.880000000000e+02, best bound 1.880000000000e+02, gap 0.0000%

Gurobi 8.1.1 (win64) logging started 11/24/19 12:48:59

Changed value of parameter LogFile to logs/drand/feas/drand-10-110-1.log
   Prev: gurobi.log  Default: 
Changed value of parameter LogToConsole to 0
   Prev: 1  Min: 0  Max: 1  Default: 1
Changed value of parameter TimeLimit to 3600.0
   Prev: 1e+100  Min: 0.0  Max: 1e+100  Default: 1e+100
Optimize a model with 472 rows, 217 columns and 1722 nonzeros
Variable types: 0 continuous, 217 integer (210 binary)
Coefficient statistics:
  Matrix range     [1e+00, 5e+02]
  Objective range  [1e+00, 1e+00]
  Bounds range     [1e+00, 1e+00]
  RHS range        [1e+00, 6e+02]
Presolve time: 0.01s
Presolved: 472 rows, 217 columns, 1722 nonzeros
Variable types: 0 continuous, 217 integer (210 binary)

Root relaxation: objective 2.766667e+01, 182 iterations, 0.00 seconds

    Nodes    |    Current Node    |     Objective Bounds      |     Work
 Expl Unexpl |  Obj  Depth IntInf | Incumbent    BestBd   Gap | It/Node Time

     0     0   27.66667    0  121          -   27.66667      -     -    0s
     0     0   39.75374    0   69          -   39.75374      -     -    0s
     0     0   39.88235    0   68          -   39.88235      -     -    0s
     0     0   48.87184    0   73          -   48.87184      -     -    0s
     0     0   48.92847    0   76          -   48.92847      -     -    0s
     0     0   48.92847    0   76          -   48.92847      -     -    0s
     0     0   49.62392    0   71          -   49.62392      -     -    0s
     0     0   49.91171    0   73          -   49.91171      -     -    0s
     0     0   49.91171    0   74          -   49.91171      -     -    0s
     0     0   51.00689    0   77          -   51.00689      -     -    0s
     0     0   51.17775    0   80          -   51.17775      -     -    0s
     0     0   51.17775    0   81          -   51.17775      -     -    0s
     0     0   51.42985    0   83          -   51.42985      -     -    0s
     0     0   51.55212    0   79          -   51.55212      -     -    0s
     0     0   51.57876    0   83          -   51.57876      -     -    0s
     0     0   51.62497    0   79          -   51.62497      -     -    0s
     0     0   51.62497    0   80          -   51.62497      -     -    0s
     0     0   52.32385    0   81          -   52.32385      -     -    0s
     0     0   52.40418    0   62          -   52.40418      -     -    0s
     0     0   52.42349    0   77          -   52.42349      -     -    0s
     0     0   52.55045    0   87          -   52.55045      -     -    0s
     0     0   52.55045    0   80          -   52.55045      -     -    0s
     0     2   52.55045    0   73          -   52.55045      -     -    0s
 38697 15393  212.00000   67   19          -  211.00000      -   4.9    5s
 103839 41202  384.00000   94   13          -  246.00000      -   4.8   10s
H144883 47705                     480.0000000  258.00000  46.3%   4.8   13s
 148963 48419  333.00000   79   15  480.00000  260.00000  45.8%   4.8   15s
 182914 56734 infeasible  101       480.00000  273.00000  43.1%   4.8   20s
 214722 63345  305.00000  103   14  480.00000  283.00000  41.0%   4.7   25s
 245783 68246 infeasible  125       480.00000  293.00000  39.0%   4.7   30s
 274644 72531  302.00000   76   10  480.00000  302.00000  37.1%   4.7   35s
 303705 74636  329.00000  124    8  480.00000  311.00000  35.2%   4.8   40s
 335965 77878 infeasible   87       480.00000  320.00000  33.3%   4.7   45s
 363868 79475  327.00000   31   12  480.00000  327.00000  31.9%   4.7   50s
*372737 35298              81     369.0000000  329.00000  10.8%   4.7   51s
 399091 11641 infeasible  105       369.00000  354.00000  4.07%   4.7   55s
*405623  2898             128     366.0000000  362.00000  1.09%   4.7   55s

Cutting planes:
  Gomory: 6
  MIR: 7
  Flow cover: 69
  Zero half: 2

Explored 408585 nodes (1915099 simplex iterations) in 55.99 seconds
Thread count was 4 (of 4 available processors)

Solution count 3: 366 369 480 

Optimal solution found (tolerance 1.00e-04)
Best objective 3.660000000000e+02, best bound 3.660000000000e+02, gap 0.0000%

Gurobi 8.1.1 (win64) logging started 11/24/19 12:49:55

Changed value of parameter LogFile to logs/drand/feas/drand-10-110-1.log
   Prev: gurobi.log  Default: 
Changed value of parameter LogToConsole to 0
   Prev: 1  Min: 0  Max: 1  Default: 1
Changed value of parameter TimeLimit to 3600.0
   Prev: 1e+100  Min: 0.0  Max: 1e+100  Default: 1e+100
Optimize a model with 340 rows, 156 columns and 1230 nonzeros
Variable types: 0 continuous, 156 integer (150 binary)
Coefficient statistics:
  Matrix range     [1e+00, 5e+02]
  Objective range  [1e+00, 1e+00]
  Bounds range     [1e+00, 1e+00]
  RHS range        [1e+00, 6e+02]
Presolve time: 0.01s
Presolved: 340 rows, 156 columns, 1230 nonzeros
Variable types: 0 continuous, 156 integer (150 binary)

Root relaxation: objective 2.720000e+01, 184 iterations, 0.00 seconds

    Nodes    |    Current Node    |     Objective Bounds      |     Work
 Expl Unexpl |  Obj  Depth IntInf | Incumbent    BestBd   Gap | It/Node Time

     0     0   27.20000    0  100          -   27.20000      -     -    0s
     0     0   42.28703    0   63          -   42.28703      -     -    0s
     0     0   42.28703    0   64          -   42.28703      -     -    0s
     0     0   50.90245    0   89          -   50.90245      -     -    0s
     0     0   51.45555    0   64          -   51.45555      -     -    0s
     0     0   51.45555    0   67          -   51.45555      -     -    0s
     0     0   54.24293    0   57          -   54.24293      -     -    0s
     0     0   54.24327    0   60          -   54.24327      -     -    0s
     0     0   56.13078    0   59          -   56.13078      -     -    0s
     0     0   56.13078    0   60          -   56.13078      -     -    0s
     0     0   59.41919    0   51          -   59.41919      -     -    0s
     0     0   59.48980    0   68          -   59.48980      -     -    0s
     0     0   59.53858    0   44          -   59.53858      -     -    0s
     0     0   59.54487    0   45          -   59.54487      -     -    0s
     0     0   59.55884    0   44          -   59.55884      -     -    0s
     0     0   59.56641    0   66          -   59.56641      -     -    0s
     0     0   60.02973    0   45          -   60.02973      -     -    0s
     0     0   61.06786    0   51          -   61.06786      -     -    0s
     0     0   61.11088    0   53          -   61.11088      -     -    0s
     0     0   61.15207    0   57          -   61.15207      -     -    0s
     0     0   61.21521    0   60          -   61.21521      -     -    0s
     0     0   61.22626    0   60          -   61.22626      -     -    0s
     0     0   61.57359    0   47          -   61.57359      -     -    0s
     0     0   61.80199    0   45          -   61.80199      -     -    0s
     0     0   61.91671    0   61          -   61.91671      -     -    0s
     0     0   62.33717    0   63          -   62.33717      -     -    0s
     0     0   62.58326    0   66          -   62.58326      -     -    0s
     0     0   62.70680    0   67          -   62.70680      -     -    0s
     0     0   62.84077    0   69          -   62.84077      -     -    0s
     0     0   65.59945    0   57          -   65.59945      -     -    0s
     0     0   65.88724    0   66          -   65.88724      -     -    0s
     0     0   66.22013    0   76          -   66.22013      -     -    0s
     0     0   66.25414    0   79          -   66.25414      -     -    0s
     0     0   66.26580    0   82          -   66.26580      -     -    0s
     0     0   66.37952    0   70          -   66.37952      -     -    0s
     0     0   66.51207    0   65          -   66.51207      -     -    0s
     0     0   66.59555    0   69          -   66.59555      -     -    0s
     0     0   66.64309    0   70          -   66.64309      -     -    0s
     0     0   66.80626    0   72          -   66.80626      -     -    0s
     0     0   66.81303    0   71          -   66.81303      -     -    0s
     0     0   67.47897    0   78          -   67.47897      -     -    0s
     0     0   67.59430    0   79          -   67.59430      -     -    0s
     0     0   67.59616    0   81          -   67.59616      -     -    0s
     0     0   67.69846    0   78          -   67.69846      -     -    0s
     0     0   67.69846    0   76          -   67.69846      -     -    0s
     0     2   67.69846    0   74          -   67.69846      -     -    0s
 42424 13385 infeasible   62               -  294.00000      -   5.6    5s
 107229 18325  438.00000   56   11          -  428.00000      -   5.2   10s
 174759 14372 infeasible   45               -  570.00000      -   4.9   15s

Cutting planes:
  Gomory: 22
  MIR: 31
  Flow cover: 66
  Inf proof: 13
  Zero half: 1

Explored 242552 nodes (1141596 simplex iterations) in 19.87 seconds
Thread count was 4 (of 4 available processors)

Solution count 0

Model is infeasible
Best objective -, best bound -, gap -
